18
 1 324 18
 2 285 15
 3 160 8
 4 210 10
 5 440 20
 6 184 8
 7 456 19
 8 125 5
 9 338 13
 10 513 19
 11 224 8
 12 58 2
 13 570 19
 14 124 4
 15 32 1
 16 198 6
 17 408 12
 18 105 3
54